p cnf 13 26
-13 11 4 0
-13 10 -6 0
-13 -8 -5 0
13 -7 -3 0
-13 -7 3 0
-13 4 1 0
12 11 3 0
-12 9 3 0
-12 8 -7 0
12 -8 1 0
-12 -7 6 0
-12 7 -1 0
12 5 -3 0
-12 -4 2 0
12 -4 1 0
-11 -10 7 0
11 9 8 0
-11 -8 2 0
-11 -7 6 0
-11 -3 2 0
-10 6 3 0
-9 5 3 0
-8 7 -4 0
-7 6 -3 0
-5 4 1 0
4 3 -1 0
